multiobj/solutions/Ter.5.3.1.00.2.out
1 3
4 1 3 0 2 
3214458 3214458 3214458 
